p tw 126 189
1 2
1 36
1 31
2 39
2 48
39 50
39 20
50 61
50 95
61 72
61 122
72 83
72 62
83 94
83 27
94 105
94 40
105 116
105 107
116 3
116 86
3 14
3 13
14 25
14 53
25 32
25 93
32 33
32 44
33 34
33 24
34 35
34 110
35 36
35 100
36 37
37 38
37 56
38 40
38 68
40 41
41 42
41 114
42 43
42 18
43 44
43 81
44 45
45 46
45 59
46 47
46 126
47 48
47 106
48 49
49 51
49 73
51 52
51 113
52 53
52 64
53 54
54 55
54 6
55 56
55 120
56 57
57 58
57 76
58 59
58 88
59 60
60 62
60 10
62 63
63 64
63 101
64 65
65 66
65 79
66 67
66 22
67 68
67 125
68 69
69 70
69 92
70 71
70 9
71 73
71 84
73 74
74 75
74 26
75 76
75 16
76 77
77 78
77 96
78 79
78 108
79 80
80 81
80 30
81 82
82 84
82 121
84 85
85 86
85 99
86 87
87 88
87 21
88 89
89 90
89 112
90 91
90 29
91 92
91 103
92 93
93 95
95 96
96 97
97 98
97 115
98 99
98 4
99 100
100 101
101 102
102 103
102 17
103 104
104 106
104 119
106 107
107 108
108 109
109 110
109 8
110 111
111 112
111 123
112 113
113 114
114 115
115 117
117 118
117 11
118 119
118 23
119 120
120 121
121 122
122 123
123 124
124 125
124 15
125 126
126 4
4 5
5 6
5 28
6 7
7 8
7 19
8 9
9 10
10 11
11 12
12 13
12 31
13 15
15 16
16 17
17 18
18 19
19 20
20 21
21 22
22 23
23 24
24 26
26 27
27 28
28 29
29 30
30 31
